Minimize
	value: tt

Subject to
tt + 1000 s_1_1 > 0.0
tt - t_1_1 - 1000.000000 s_1_1  + 0.000000 s_1_7  > -997.968989
tt + 1000 s_2_1 > 0.0
tt - t_2_1 - 1000.000000 s_2_1  + 0.000000 s_2_7  > -995.616664
tt + 1000 s_1_2 > 0.0
tt - t_1_2 - 1000.000000 s_1_2  + 0.000000 s_1_7  > -998.272533
tt + 1000 s_2_2 > 0.0
tt - t_2_2 - 1000.000000 s_2_2  + 0.000000 s_2_7  > -996.235817
tt + 1000 s_1_3 > 0.0
tt - t_1_3 - 1000.000000 s_1_3  + 0.000000 s_1_7  > -998.572725
tt + 1000 s_2_3 > 0.0
tt - t_2_3 - 1000.000000 s_2_3  + 0.000000 s_2_7  > -996.722007
tt + 1000 s_1_4 > 0.0
tt - t_1_4 - 1000.000000 s_1_4  + 0.000000 s_1_1  + 0.000000 s_1_2  > -999.826411
tt + 1000 s_2_4 > 0.0
tt - t_2_4 - 1000.000000 s_2_4  + 0.000000 s_2_1  + 0.000000 s_2_2  > -999.705247
tt + 1000 s_1_5 > 0.0
tt - t_1_5 - 1000.000000 s_1_5  + 0.000000 s_1_1  + 0.000000 s_1_7  > -999.459989
tt + 1000 s_2_5 > 0.0
tt - t_2_5 - 1000.000000 s_2_5  + 0.000000 s_2_1  + 0.000000 s_2_7  > -998.493684
tt + 1000 s_1_6 > 0.0
tt - t_1_6 - 1000.000000 s_1_6  + 0.000000 s_1_4  + 0.000000 s_1_3  + 0.000000 s_1_2  + 0.000000 s_1_5  > -999.801900
tt + 1000 s_2_6 > 0.0
tt - t_2_6 - 1000.000000 s_2_6  + 0.000000 s_2_4  + 0.000000 s_2_3  + 0.000000 s_2_2  + 0.000000 s_2_5  > -999.581421
tt + 1000 s_1_7 > 0.0
tt - t_1_7 - 1000.000000 s_1_7  > -998.995667
tt + 1000 s_2_7 > 0.0
tt - t_2_7 - 1000.000000 s_2_7  > -995.685650
s_1_1 + s_2_1 = 1
s_1_2 + s_2_2 = 1
s_1_3 + s_2_3 = 1
s_1_4 + s_2_4 = 1
s_1_5 + s_2_5 = 1
s_1_6 + s_2_6 = 1
s_1_7 + s_2_7 = 1
s_1_1 + s_1_2 + 1000 r_1_1_2 >= 2
- s_1_1 - s_1_2 - 1000 r_1_1_2 >= -1001
t_1_1 - t_1_2 - 1000.000000 u_1_1_2 - 0.000000 s_1_2  + 0.000000 s_1_7  + 2000.000000 r_1_1_2 > -998.272533
s_2_1 + s_2_2 + 1000 r_2_1_2 >= 2
- s_2_1 - s_2_2 - 1000 r_2_1_2 >= -1001
t_2_1 - t_2_2 - 1000.000000 u_2_1_2 - 0.000000 s_2_2  + 0.000000 s_2_7  + 2000.000000 r_2_1_2 > -996.235817
s_1_1 + s_1_3 + 1000 r_1_1_3 >= 2
- s_1_1 - s_1_3 - 1000 r_1_1_3 >= -1001
t_1_1 - t_1_3 - 1000.000000 u_1_1_3 - 0.000000 s_1_3  + 0.000000 s_1_7  + 2000.000000 r_1_1_3 > -998.572725
s_2_1 + s_2_3 + 1000 r_2_1_3 >= 2
- s_2_1 - s_2_3 - 1000 r_2_1_3 >= -1001
t_2_1 - t_2_3 - 1000.000000 u_2_1_3 - 0.000000 s_2_3  + 0.000000 s_2_7  + 2000.000000 r_2_1_3 > -996.722007
t_1_4 - t_1_1 - 1000.000000 s_1_1  + 0.000000 s_1_7  > -997.968989
t_1_4 - t_2_1 - 1000.000000 s_2_1  + 0.000000 s_2_7  > -995.616664
t_2_4 - t_1_1 - 1000.000000 s_1_1  + 0.000000 s_1_7  > -997.968989
t_2_4 - t_2_1 - 1000.000000 s_2_1  + 0.000000 s_2_7  > -995.616664
t_1_5 - t_1_1 - 1000.000000 s_1_1  + 0.000000 s_1_7  > -997.968989
t_1_5 - t_2_1 - 1000.000000 s_2_1  + 0.000000 s_2_7  > -995.616664
t_2_5 - t_1_1 - 1000.000000 s_1_1  + 0.000000 s_1_7  > -997.968989
t_2_5 - t_2_1 - 1000.000000 s_2_1  + 0.000000 s_2_7  > -995.616664
t_1_1 - t_1_7 - 1000.000000 s_1_7  > -998.995667
t_1_1 - t_2_7 - 1000.000000 s_2_7  > -995.685650
t_2_1 - t_1_7 - 1000.000000 s_1_7  > -998.995667
t_2_1 - t_2_7 - 1000.000000 s_2_7  > -995.685650
s_1_2 + s_1_1 + 1000 r_1_1_2 >= 2
- s_1_2 - s_1_1 - 1000 r_1_1_2 >= -1001
t_1_2 - t_1_1 + 1000.000000 u_1_1_2 - 0.000000 s_1_1  + 0.000000 s_1_7  + 2000.000000 r_1_1_2 > 2.031011
s_2_2 + s_2_1 + 1000 r_2_1_2 >= 2
- s_2_2 - s_2_1 - 1000 r_2_1_2 >= -1001
t_2_2 - t_2_1 + 1000.000000 u_2_1_2 - 0.000000 s_2_1  + 0.000000 s_2_7  + 2000.000000 r_2_1_2 > 4.383336
s_1_2 + s_1_3 + 1000 r_1_2_3 >= 2
- s_1_2 - s_1_3 - 1000 r_1_2_3 >= -1001
t_1_2 - t_1_3 - 1000.000000 u_1_2_3 - 0.000000 s_1_3  + 0.000000 s_1_7  + 2000.000000 r_1_2_3 > -998.572725
s_2_2 + s_2_3 + 1000 r_2_2_3 >= 2
- s_2_2 - s_2_3 - 1000 r_2_2_3 >= -1001
t_2_2 - t_2_3 - 1000.000000 u_2_2_3 - 0.000000 s_2_3  + 0.000000 s_2_7  + 2000.000000 r_2_2_3 > -996.722007
t_1_4 - t_1_2 - 1000.000000 s_1_2  + 0.000000 s_1_7  > -998.272533
t_1_4 - t_2_2 - 1000.000000 s_2_2  + 0.000000 s_2_7  > -996.235817
t_2_4 - t_1_2 - 1000.000000 s_1_2  + 0.000000 s_1_7  > -998.272533
t_2_4 - t_2_2 - 1000.000000 s_2_2  + 0.000000 s_2_7  > -996.235817
s_1_2 + s_1_5 + 1000 r_1_2_5 >= 2
- s_1_2 - s_1_5 - 1000 r_1_2_5 >= -1001
t_1_2 - t_1_5 - 1000.000000 u_1_2_5 - 0.000000 s_1_5  + 0.000000 s_1_1  + 0.000000 s_1_7  + 2000.000000 r_1_2_5 > -999.459989
s_2_2 + s_2_5 + 1000 r_2_2_5 >= 2
- s_2_2 - s_2_5 - 1000 r_2_2_5 >= -1001
t_2_2 - t_2_5 - 1000.000000 u_2_2_5 - 0.000000 s_2_5  + 0.000000 s_2_1  + 0.000000 s_2_7  + 2000.000000 r_2_2_5 > -998.493684
t_1_6 - t_1_2 - 1000.000000 s_1_2  + 0.000000 s_1_7  > -998.272533
t_1_6 - t_2_2 - 1000.000000 s_2_2  + 0.000000 s_2_7  > -996.235817
t_2_6 - t_1_2 - 1000.000000 s_1_2  + 0.000000 s_1_7  > -998.272533
t_2_6 - t_2_2 - 1000.000000 s_2_2  + 0.000000 s_2_7  > -996.235817
t_1_2 - t_1_7 - 1000.000000 s_1_7  > -998.995667
t_1_2 - t_2_7 - 1000.000000 s_2_7  > -995.685650
t_2_2 - t_1_7 - 1000.000000 s_1_7  > -998.995667
t_2_2 - t_2_7 - 1000.000000 s_2_7  > -995.685650
s_1_3 + s_1_1 + 1000 r_1_1_3 >= 2
- s_1_3 - s_1_1 - 1000 r_1_1_3 >= -1001
t_1_3 - t_1_1 + 1000.000000 u_1_1_3 - 0.000000 s_1_1  + 0.000000 s_1_7  + 2000.000000 r_1_1_3 > 2.031011
s_2_3 + s_2_1 + 1000 r_2_1_3 >= 2
- s_2_3 - s_2_1 - 1000 r_2_1_3 >= -1001
t_2_3 - t_2_1 + 1000.000000 u_2_1_3 - 0.000000 s_2_1  + 0.000000 s_2_7  + 2000.000000 r_2_1_3 > 4.383336
s_1_3 + s_1_2 + 1000 r_1_2_3 >= 2
- s_1_3 - s_1_2 - 1000 r_1_2_3 >= -1001
t_1_3 - t_1_2 + 1000.000000 u_1_2_3 - 0.000000 s_1_2  + 0.000000 s_1_7  + 2000.000000 r_1_2_3 > 1.727467
s_2_3 + s_2_2 + 1000 r_2_2_3 >= 2
- s_2_3 - s_2_2 - 1000 r_2_2_3 >= -1001
t_2_3 - t_2_2 + 1000.000000 u_2_2_3 - 0.000000 s_2_2  + 0.000000 s_2_7  + 2000.000000 r_2_2_3 > 3.764183
s_1_3 + s_1_4 + 1000 r_1_3_4 >= 2
- s_1_3 - s_1_4 - 1000 r_1_3_4 >= -1001
t_1_3 - t_1_4 - 1000.000000 u_1_3_4 - 0.000000 s_1_4  + 0.000000 s_1_1  + 0.000000 s_1_2  + 2000.000000 r_1_3_4 > -999.826411
s_2_3 + s_2_4 + 1000 r_2_3_4 >= 2
- s_2_3 - s_2_4 - 1000 r_2_3_4 >= -1001
t_2_3 - t_2_4 - 1000.000000 u_2_3_4 - 0.000000 s_2_4  + 0.000000 s_2_1  + 0.000000 s_2_2  + 2000.000000 r_2_3_4 > -999.705247
s_1_3 + s_1_5 + 1000 r_1_3_5 >= 2
- s_1_3 - s_1_5 - 1000 r_1_3_5 >= -1001
t_1_3 - t_1_5 - 1000.000000 u_1_3_5 - 0.000000 s_1_5  + 0.000000 s_1_1  + 0.000000 s_1_7  + 2000.000000 r_1_3_5 > -999.459989
s_2_3 + s_2_5 + 1000 r_2_3_5 >= 2
- s_2_3 - s_2_5 - 1000 r_2_3_5 >= -1001
t_2_3 - t_2_5 - 1000.000000 u_2_3_5 - 0.000000 s_2_5  + 0.000000 s_2_1  + 0.000000 s_2_7  + 2000.000000 r_2_3_5 > -998.493684
t_1_6 - t_1_3 - 1000.000000 s_1_3  + 0.000000 s_1_7  > -998.572725
t_1_6 - t_2_3 - 1000.000000 s_2_3  + 0.000000 s_2_7  > -996.722007
t_2_6 - t_1_3 - 1000.000000 s_1_3  + 0.000000 s_1_7  > -998.572725
t_2_6 - t_2_3 - 1000.000000 s_2_3  + 0.000000 s_2_7  > -996.722007
t_1_3 - t_1_7 - 1000.000000 s_1_7  > -998.995667
t_1_3 - t_2_7 - 1000.000000 s_2_7  > -995.685650
t_2_3 - t_1_7 - 1000.000000 s_1_7  > -998.995667
t_2_3 - t_2_7 - 1000.000000 s_2_7  > -995.685650
s_1_4 + s_1_3 + 1000 r_1_3_4 >= 2
- s_1_4 - s_1_3 - 1000 r_1_3_4 >= -1001
t_1_4 - t_1_3 + 1000.000000 u_1_3_4 - 0.000000 s_1_3  + 0.000000 s_1_7  + 2000.000000 r_1_3_4 > 1.427275
s_2_4 + s_2_3 + 1000 r_2_3_4 >= 2
- s_2_4 - s_2_3 - 1000 r_2_3_4 >= -1001
t_2_4 - t_2_3 + 1000.000000 u_2_3_4 - 0.000000 s_2_3  + 0.000000 s_2_7  + 2000.000000 r_2_3_4 > 3.277993
s_1_4 + s_1_5 + 1000 r_1_4_5 >= 2
- s_1_4 - s_1_5 - 1000 r_1_4_5 >= -1001
t_1_4 - t_1_5 - 1000.000000 u_1_4_5 - 0.000000 s_1_5  + 0.000000 s_1_1  + 0.000000 s_1_7  + 2000.000000 r_1_4_5 > -999.459989
s_2_4 + s_2_5 + 1000 r_2_4_5 >= 2
- s_2_4 - s_2_5 - 1000 r_2_4_5 >= -1001
t_2_4 - t_2_5 - 1000.000000 u_2_4_5 - 0.000000 s_2_5  + 0.000000 s_2_1  + 0.000000 s_2_7  + 2000.000000 r_2_4_5 > -998.493684
t_1_6 - t_1_4 - 1000.000000 s_1_4  + 0.000000 s_1_1  + 0.000000 s_1_2  > -999.826411
t_1_6 - t_2_4 - 1000.000000 s_2_4  + 0.000000 s_2_1  + 0.000000 s_2_2  > -999.705247
t_2_6 - t_1_4 - 1000.000000 s_1_4  + 0.000000 s_1_1  + 0.000000 s_1_2  > -999.826411
t_2_6 - t_2_4 - 1000.000000 s_2_4  + 0.000000 s_2_1  + 0.000000 s_2_2  > -999.705247
s_1_5 + s_1_2 + 1000 r_1_2_5 >= 2
- s_1_5 - s_1_2 - 1000 r_1_2_5 >= -1001
t_1_5 - t_1_2 + 1000.000000 u_1_2_5 - 0.000000 s_1_2  + 0.000000 s_1_7  + 2000.000000 r_1_2_5 > 1.727467
s_2_5 + s_2_2 + 1000 r_2_2_5 >= 2
- s_2_5 - s_2_2 - 1000 r_2_2_5 >= -1001
t_2_5 - t_2_2 + 1000.000000 u_2_2_5 - 0.000000 s_2_2  + 0.000000 s_2_7  + 2000.000000 r_2_2_5 > 3.764183
s_1_5 + s_1_3 + 1000 r_1_3_5 >= 2
- s_1_5 - s_1_3 - 1000 r_1_3_5 >= -1001
t_1_5 - t_1_3 + 1000.000000 u_1_3_5 - 0.000000 s_1_3  + 0.000000 s_1_7  + 2000.000000 r_1_3_5 > 1.427275
s_2_5 + s_2_3 + 1000 r_2_3_5 >= 2
- s_2_5 - s_2_3 - 1000 r_2_3_5 >= -1001
t_2_5 - t_2_3 + 1000.000000 u_2_3_5 - 0.000000 s_2_3  + 0.000000 s_2_7  + 2000.000000 r_2_3_5 > 3.277993
s_1_5 + s_1_4 + 1000 r_1_4_5 >= 2
- s_1_5 - s_1_4 - 1000 r_1_4_5 >= -1001
t_1_5 - t_1_4 + 1000.000000 u_1_4_5 - 0.000000 s_1_4  + 0.000000 s_1_1  + 0.000000 s_1_2  + 2000.000000 r_1_4_5 > 0.173589
s_2_5 + s_2_4 + 1000 r_2_4_5 >= 2
- s_2_5 - s_2_4 - 1000 r_2_4_5 >= -1001
t_2_5 - t_2_4 + 1000.000000 u_2_4_5 - 0.000000 s_2_4  + 0.000000 s_2_1  + 0.000000 s_2_2  + 2000.000000 r_2_4_5 > 0.294753
t_1_6 - t_1_5 - 1000.000000 s_1_5  + 0.000000 s_1_1  + 0.000000 s_1_7  > -999.459989
t_1_6 - t_2_5 - 1000.000000 s_2_5  + 0.000000 s_2_1  + 0.000000 s_2_7  > -998.493684
t_2_6 - t_1_5 - 1000.000000 s_1_5  + 0.000000 s_1_1  + 0.000000 s_1_7  > -999.459989
t_2_6 - t_2_5 - 1000.000000 s_2_5  + 0.000000 s_2_1  + 0.000000 s_2_7  > -998.493684
t_1_5 - t_1_7 - 1000.000000 s_1_7  > -998.995667
t_1_5 - t_2_7 - 1000.000000 s_2_7  > -995.685650
t_2_5 - t_1_7 - 1000.000000 s_1_7  > -998.995667
t_2_5 - t_2_7 - 1000.000000 s_2_7  > -995.685650
Binary
s_1_1
s_2_1
s_1_2
s_2_2
s_1_3
s_2_3
s_1_4
s_2_4
s_1_5
s_2_5
s_1_6
s_2_6
s_1_7
s_2_7
u_1_1_2
r_1_1_2
u_2_1_2
r_2_1_2
u_1_1_3
r_1_1_3
u_2_1_3
r_2_1_3
u_1_2_3
r_1_2_3
u_2_2_3
r_2_2_3
u_1_2_5
r_1_2_5
u_2_2_5
r_2_2_5
u_1_3_4
r_1_3_4
u_2_3_4
r_2_3_4
u_1_3_5
r_1_3_5
u_2_3_5
r_2_3_5
u_1_4_5
r_1_4_5
u_2_4_5
r_2_4_5

End
